14 20

7 5 3 9 18 5 2 2 4 6
3 15 2 5 7 14 14 14 4 14 11 6
1 8 8 4 2 9 11 2 7 11
7 4 10 13 4 6 16 10 19 5 20 14
7 3 8 2 17 15 14 14 19 6
12 11 13 9 2 14 10 3
1 13 6 6 17 13 14 2
20 13 18 2 11 4 12 10 4 7 6 6
8 2 7 7 2 13 20 11 16 10
6 7 11 5 3 13 1 9 19 7 10 3
12 15 16 13 10 3 4 9 3 13 5 3
18 10 20 7 19 14 14 5 1 6
10 8 8 15 13 6 1 9 5 5
18 10 9 4 2 4 19 14 20 3
